02_FORMAL/tv/RIINA/Domains/CryptographicSecurity.tv.smt2
; Copyright (c) 2026 The RIINA Authors. All rights reserved.
; Auto-generated from 02_FORMAL/coq/domains/CryptographicSecurity.v (76 validations)
; Generated by scripts/generate-full-stack.py
;
; Translation Validation for CryptographicSecurity
; Layer 9: Verifies compiler backend preserves formal semantics.
; Each assertion checks source IR ≡ target code for a proven property.

(set-logic QF_LIA)
(set-option :produce-models true)

; IR node representation
(declare-sort IRNode 0)
(declare-sort TargetNode 0)

; ct_valid: source semantics (matches Coq)
(declare-fun source_ct_valid () Bool)
(declare-fun target_ct_valid () Bool)
(assert (= source_ct_valid target_ct_valid))

; riina_ct_op: source semantics (matches Coq)
(declare-fun source_riina_ct_op () Bool)
(declare-fun target_riina_ct_op () Bool)
(assert (= source_riina_ct_op target_riina_ct_op))

; key_secure: source semantics (matches Coq)
(declare-fun source_key_secure () Bool)
(declare-fun target_key_secure () Bool)
(assert (= source_key_secure target_key_secure))

; key_strong: source semantics (matches Coq)
(declare-fun source_key_strong () Bool)
(declare-fun target_key_strong () Bool)
(assert (= source_key_strong target_key_strong))

; riina_key: source semantics (matches Coq)
(declare-fun source_riina_key () Bool)
(declare-fun target_riina_key () Bool)
(assert (= source_riina_key target_riina_key))

; nonce_fresh: source semantics (matches Coq)
(declare-fun source_nonce_fresh () Bool)
(declare-fun target_nonce_fresh () Bool)
(assert (= source_nonce_fresh target_nonce_fresh))

; nonce_counter_safe: source semantics (matches Coq)
(declare-fun source_nonce_counter_safe () Bool)
(declare-fun target_nonce_counter_safe () Bool)
(assert (= source_nonce_counter_safe target_nonce_counter_safe))

; aead_secure: source semantics (matches Coq)
(declare-fun source_aead_secure () Bool)
(declare-fun target_aead_secure () Bool)
(assert (= source_aead_secure target_aead_secure))

; riina_aead: source semantics (matches Coq)
(declare-fun source_riina_aead () Bool)
(declare-fun target_riina_aead () Bool)
(assert (= source_riina_aead target_riina_aead))

; hash_secure: source semantics (matches Coq)
(declare-fun source_hash_secure () Bool)
(declare-fun target_hash_secure () Bool)
(assert (= source_hash_secure target_hash_secure))

; riina_hash: source semantics (matches Coq)
(declare-fun source_riina_hash () Bool)
(declare-fun target_riina_hash () Bool)
(assert (= source_riina_hash target_riina_hash))

; rng_secure: source semantics (matches Coq)
(declare-fun source_rng_secure () Bool)
(declare-fun target_rng_secure () Bool)
(assert (= source_rng_secure target_rng_secure))

; riina_rng: source semantics (matches Coq)
(declare-fun source_riina_rng () Bool)
(declare-fun target_riina_rng () Bool)
(assert (= source_riina_rng target_riina_rng))

; proto_secure: source semantics (matches Coq)
(declare-fun source_proto_secure () Bool)
(declare-fun target_proto_secure () Bool)
(assert (= source_proto_secure target_proto_secure))

; riina_proto: source semantics (matches Coq)
(declare-fun source_riina_proto () Bool)
(declare-fun target_riina_proto () Bool)
(assert (= source_riina_proto target_riina_proto))

; pq_secure: source semantics (matches Coq)
(declare-fun source_pq_secure () Bool)
(declare-fun target_pq_secure () Bool)
(assert (= source_pq_secure target_pq_secure))

; riina_pq: source semantics (matches Coq)
(declare-fun source_riina_pq () Bool)
(declare-fun target_riina_pq () Bool)
(assert (= source_riina_pq target_riina_pq))

; mraead_secure: source semantics (matches Coq)
(declare-fun source_mraead_secure () Bool)
(declare-fun target_mraead_secure () Bool)
(assert (= source_mraead_secure target_mraead_secure))

; riina_mraead: source semantics (matches Coq)
(declare-fun source_riina_mraead () Bool)
(declare-fun target_riina_mraead () Bool)
(assert (= source_riina_mraead target_riina_mraead))

; cert_secure: source semantics (matches Coq)
(declare-fun source_cert_secure () Bool)
(declare-fun target_cert_secure () Bool)
(assert (= source_cert_secure target_cert_secure))

; riina_cert: source semantics (matches Coq)
(declare-fun source_riina_cert () Bool)
(declare-fun target_riina_cert () Bool)
(assert (= source_riina_cert target_riina_cert))

; encrypt_decrypt_inverse_property: source semantics (matches Coq)
(declare-fun source_encrypt_decrypt_inverse_property () Bool)
(declare-fun target_encrypt_decrypt_inverse_property () Bool)
(assert (= source_encrypt_decrypt_inverse_property target_encrypt_decrypt_inverse_property))

; riina_enc_scheme: source semantics (matches Coq)
(declare-fun source_riina_enc_scheme () Bool)
(declare-fun target_riina_enc_scheme () Bool)
(assert (= source_riina_enc_scheme target_riina_enc_scheme))

; kdf_secure: source semantics (matches Coq)
(declare-fun source_kdf_secure () Bool)
(declare-fun target_kdf_secure () Bool)
(assert (= source_kdf_secure target_kdf_secure))

; riina_kdf: source semantics (matches Coq)
(declare-fun source_riina_kdf () Bool)
(declare-fun target_riina_kdf () Bool)
(assert (= source_riina_kdf target_riina_kdf))

; derived_key_valid: source semantics (matches Coq)
(declare-fun source_derived_key_valid () Bool)
(declare-fun target_derived_key_valid () Bool)
(assert (= source_derived_key_valid target_derived_key_valid))

; mac_secure: source semantics (matches Coq)
(declare-fun source_mac_secure () Bool)
(declare-fun target_mac_secure () Bool)
(assert (= source_mac_secure target_mac_secure))

; riina_mac: source semantics (matches Coq)
(declare-fun source_riina_mac () Bool)
(declare-fun target_riina_mac () Bool)
(assert (= source_riina_mac target_riina_mac))

; tag_compare_ct: source semantics (matches Coq)
(declare-fun source_tag_compare_ct () Bool)
(declare-fun target_tag_compare_ct () Bool)
(assert (= source_tag_compare_ct target_tag_compare_ct))

; counter_nonce_valid: source semantics (matches Coq)
(declare-fun source_counter_nonce_valid () Bool)
(declare-fun target_counter_nonce_valid () Bool)
(assert (= source_counter_nonce_valid target_counter_nonce_valid))

; nonce_in_set: source semantics (matches Coq)
(declare-fun source_nonce_in_set () Bool)
(declare-fun target_nonce_in_set () Bool)
(assert (= source_nonce_in_set target_nonce_in_set))

; full_crypto_secure: source semantics (matches Coq)
(declare-fun source_full_crypto_secure () Bool)
(declare-fun target_full_crypto_secure () Bool)
(assert (= source_full_crypto_secure target_full_crypto_secure))

; riina_full_crypto: source semantics (matches Coq)
(declare-fun source_riina_full_crypto () Bool)
(declare-fun target_riina_full_crypto () Bool)
(assert (= source_riina_full_crypto target_riina_full_crypto))

; andb_true_iff: translation preserves property (matches Coq: Lemma)
(declare-fun source_andb_true_iff () Bool)
(declare-fun target_andb_true_iff () Bool)
(assert (= source_andb_true_iff target_andb_true_iff))

; andb3_true_iff: translation preserves property (matches Coq: Lemma)
(declare-fun source_andb3_true_iff () Bool)
(declare-fun target_andb3_true_iff () Bool)
(assert (= source_andb3_true_iff target_andb3_true_iff))

; negb_true_iff: translation preserves property (matches Coq: Lemma)
(declare-fun source_negb_true_iff () Bool)
(declare-fun target_negb_true_iff () Bool)
(assert (= source_negb_true_iff target_negb_true_iff))

; leb_le: translation preserves property (matches Coq: Lemma)
(declare-fun source_leb_le () Bool)
(declare-fun target_leb_le () Bool)
(assert (= source_leb_le target_leb_le))

; cry_001_timing_side_channel_mitigated: translation preserves property (matches Coq: Theorem)
(declare-fun source_cry_001_timing_side_channel_mitigated () Bool)
(declare-fun target_cry_001_timing_side_channel_mitigated () Bool)
(assert (= source_cry_001_timing_side_channel_mitigated target_cry_001_timing_side_channel_mitigated))

; cry_001a_riina_timing_safe: translation preserves property (matches Coq: Theorem)
(declare-fun source_cry_001a_riina_timing_safe () Bool)
(declare-fun target_cry_001a_riina_timing_safe () Bool)
(assert (= source_cry_001a_riina_timing_safe target_cry_001a_riina_timing_safe))

; cry_002_spa_mitigated: translation preserves property (matches Coq: Theorem)
(declare-fun source_cry_002_spa_mitigated () Bool)
(declare-fun target_cry_002_spa_mitigated () Bool)
(assert (= source_cry_002_spa_mitigated target_cry_002_spa_mitigated))

; cry_003_dpa_mitigated: translation preserves property (matches Coq: Theorem)
(declare-fun source_cry_003_dpa_mitigated () Bool)
(declare-fun target_cry_003_dpa_mitigated () Bool)
(assert (= source_cry_003_dpa_mitigated target_cry_003_dpa_mitigated))

; cry_004_em_analysis_mitigated: translation preserves property (matches Coq: Theorem)
(declare-fun source_cry_004_em_analysis_mitigated () Bool)
(declare-fun target_cry_004_em_analysis_mitigated () Bool)
(assert (= source_cry_004_em_analysis_mitigated target_cry_004_em_analysis_mitigated))

; cry_005_acoustic_analysis_mitigated: translation preserves property (matches Coq: Theorem)
(declare-fun source_cry_005_acoustic_analysis_mitigated () Bool)
(declare-fun target_cry_005_acoustic_analysis_mitigated () Bool)
(assert (= source_cry_005_acoustic_analysis_mitigated target_cry_005_acoustic_analysis_mitigated))

; cry_006_cache_timing_mitigated: translation preserves property (matches Coq: Theorem)
(declare-fun source_cry_006_cache_timing_mitigated () Bool)
(declare-fun target_cry_006_cache_timing_mitigated () Bool)
(assert (= source_cry_006_cache_timing_mitigated target_cry_006_cache_timing_mitigated))

; cry_007_padding_oracle_mitigated: translation preserves property (matches Coq: Theorem)
(declare-fun source_cry_007_padding_oracle_mitigated () Bool)
(declare-fun target_cry_007_padding_oracle_mitigated () Bool)
(assert (= source_cry_007_padding_oracle_mitigated target_cry_007_padding_oracle_mitigated))

; cry_007a_riina_aead_padding_safe: translation preserves property (matches Coq: Theorem)
(declare-fun source_cry_007a_riina_aead_padding_safe () Bool)
(declare-fun target_cry_007a_riina_aead_padding_safe () Bool)
(assert (= source_cry_007a_riina_aead_padding_safe target_cry_007a_riina_aead_padding_safe))

; cry_008_chosen_plaintext_mitigated: translation preserves property (matches Coq: Theorem)
(declare-fun source_cry_008_chosen_plaintext_mitigated () Bool)
(declare-fun target_cry_008_chosen_plaintext_mitigated () Bool)
(assert (= source_cry_008_chosen_plaintext_mitigated target_cry_008_chosen_plaintext_mitigated))

; cry_009_chosen_ciphertext_mitigated: translation preserves property (matches Coq: Theorem)
(declare-fun source_cry_009_chosen_ciphertext_mitigated () Bool)
(declare-fun target_cry_009_chosen_ciphertext_mitigated () Bool)
(assert (= source_cry_009_chosen_ciphertext_mitigated target_cry_009_chosen_ciphertext_mitigated))

; cry_010_known_plaintext_mitigated: translation preserves property (matches Coq: Theorem)
(declare-fun source_cry_010_known_plaintext_mitigated () Bool)
(declare-fun target_cry_010_known_plaintext_mitigated () Bool)
(assert (= source_cry_010_known_plaintext_mitigated target_cry_010_known_plaintext_mitigated))

; cry_011_mitm_mitigated: translation preserves property (matches Coq: Theorem)
(declare-fun source_cry_011_mitm_mitigated () Bool)
(declare-fun target_cry_011_mitm_mitigated () Bool)
(assert (= source_cry_011_mitm_mitigated target_cry_011_mitm_mitigated))

; cry_011a_riina_key_mitm_safe: translation preserves property (matches Coq: Theorem)
(declare-fun source_cry_011a_riina_key_mitm_safe () Bool)
(declare-fun target_cry_011a_riina_key_mitm_safe () Bool)
(assert (= source_cry_011a_riina_key_mitm_safe target_cry_011a_riina_key_mitm_safe))

; cry_012_birthday_attack_mitigated: translation preserves property (matches Coq: Theorem)
(declare-fun source_cry_012_birthday_attack_mitigated () Bool)
(declare-fun target_cry_012_birthday_attack_mitigated () Bool)
(assert (= source_cry_012_birthday_attack_mitigated target_cry_012_birthday_attack_mitigated))

; cry_012a_riina_hash_birthday_safe: translation preserves property (matches Coq: Theorem)
(declare-fun source_cry_012a_riina_hash_birthday_safe () Bool)
(declare-fun target_cry_012a_riina_hash_birthday_safe () Bool)
(assert (= source_cry_012a_riina_hash_birthday_safe target_cry_012a_riina_hash_birthday_safe))

; cry_013_length_extension_mitigated: translation preserves property (matches Coq: Theorem)
(declare-fun source_cry_013_length_extension_mitigated () Bool)
(declare-fun target_cry_013_length_extension_mitigated () Bool)
(assert (= source_cry_013_length_extension_mitigated target_cry_013_length_extension_mitigated))

; cry_014_downgrade_attack_mitigated: translation preserves property (matches Coq: Theorem)
(declare-fun source_cry_014_downgrade_attack_mitigated () Bool)
(declare-fun target_cry_014_downgrade_attack_mitigated () Bool)
(assert (= source_cry_014_downgrade_attack_mitigated target_cry_014_downgrade_attack_mitigated))

; cry_014a_riina_proto_downgrade_safe: translation preserves property (matches Coq: Theorem)
(declare-fun source_cry_014a_riina_proto_downgrade_safe () Bool)
(declare-fun target_cry_014a_riina_proto_downgrade_safe () Bool)
(assert (= source_cry_014a_riina_proto_downgrade_safe target_cry_014a_riina_proto_downgrade_safe))

; cry_015_protocol_attack_mitigated: translation preserves property (matches Coq: Theorem)
(declare-fun source_cry_015_protocol_attack_mitigated () Bool)
(declare-fun target_cry_015_protocol_attack_mitigated () Bool)
(assert (= source_cry_015_protocol_attack_mitigated target_cry_015_protocol_attack_mitigated))

; cry_016_implementation_flaw_mitigated: translation preserves property (matches Coq: Theorem)
(declare-fun source_cry_016_implementation_flaw_mitigated () Bool)
(declare-fun target_cry_016_implementation_flaw_mitigated () Bool)
(assert (= source_cry_016_implementation_flaw_mitigated target_cry_016_implementation_flaw_mitigated))

; cry_017_rng_attack_mitigated: translation preserves property (matches Coq: Theorem)
(declare-fun source_cry_017_rng_attack_mitigated () Bool)
(declare-fun target_cry_017_rng_attack_mitigated () Bool)
(assert (= source_cry_017_rng_attack_mitigated target_cry_017_rng_attack_mitigated))

; cry_017a_riina_rng_secure: translation preserves property (matches Coq: Theorem)
(declare-fun source_cry_017a_riina_rng_secure () Bool)
(declare-fun target_cry_017a_riina_rng_secure () Bool)
(assert (= source_cry_017a_riina_rng_secure target_cry_017a_riina_rng_secure))

; cry_018_key_reuse_mitigated: translation preserves property (matches Coq: Theorem)
(declare-fun source_cry_018_key_reuse_mitigated () Bool)
(declare-fun target_cry_018_key_reuse_mitigated () Bool)
(assert (= source_cry_018_key_reuse_mitigated target_cry_018_key_reuse_mitigated))

; cry_019_weak_keys_mitigated: translation preserves property (matches Coq: Theorem)
(declare-fun source_cry_019_weak_keys_mitigated () Bool)
(declare-fun target_cry_019_weak_keys_mitigated () Bool)
(assert (= source_cry_019_weak_keys_mitigated target_cry_019_weak_keys_mitigated))

; cry_020_related_key_attack_mitigated: translation preserves property (matches Coq: Theorem)
(declare-fun source_cry_020_related_key_attack_mitigated () Bool)
(declare-fun target_cry_020_related_key_attack_mitigated () Bool)
(assert (= source_cry_020_related_key_attack_mitigated target_cry_020_related_key_attack_mitigated))

; cry_020a_riina_key_related_safe: translation preserves property (matches Coq: Theorem)
(declare-fun source_cry_020a_riina_key_related_safe () Bool)
(declare-fun target_cry_020a_riina_key_related_safe () Bool)
(assert (= source_cry_020a_riina_key_related_safe target_cry_020a_riina_key_related_safe))

; cry_021_differential_cryptanalysis_mitigated: translation preserves property (matches Coq: Theorem)
(declare-fun source_cry_021_differential_cryptanalysis_mitigated () Bool)
(declare-fun target_cry_021_differential_cryptanalysis_mitigated () Bool)
(assert (= source_cry_021_differential_cryptanalysis_mitigated target_cry_021_differential_cryptanalysis_mitigated))

; cry_022_linear_cryptanalysis_mitigated: translation preserves property (matches Coq: Theorem)
(declare-fun source_cry_022_linear_cryptanalysis_mitigated () Bool)
(declare-fun target_cry_022_linear_cryptanalysis_mitigated () Bool)
(assert (= source_cry_022_linear_cryptanalysis_mitigated target_cry_022_linear_cryptanalysis_mitigated))

; cry_023_algebraic_attack_mitigated: translation preserves property (matches Coq: Theorem)
(declare-fun source_cry_023_algebraic_attack_mitigated () Bool)
(declare-fun target_cry_023_algebraic_attack_mitigated () Bool)
(assert (= source_cry_023_algebraic_attack_mitigated target_cry_023_algebraic_attack_mitigated))

; cry_024_quantum_attack_mitigated: translation preserves property (matches Coq: Theorem)
(declare-fun source_cry_024_quantum_attack_mitigated () Bool)
(declare-fun target_cry_024_quantum_attack_mitigated () Bool)
(assert (= source_cry_024_quantum_attack_mitigated target_cry_024_quantum_attack_mitigated))

; cry_024a_riina_pq_secure: translation preserves property (matches Coq: Theorem)
(declare-fun source_cry_024a_riina_pq_secure () Bool)
(declare-fun target_cry_024a_riina_pq_secure () Bool)
(assert (= source_cry_024a_riina_pq_secure target_cry_024a_riina_pq_secure))

; cry_025_harvest_now_decrypt_later_mitigated: translation preserves property (matches Coq: Theorem)
(declare-fun source_cry_025_harvest_now_decrypt_later_mitigated () Bool)
(declare-fun target_cry_025_harvest_now_decrypt_later_mitigated () Bool)
(assert (= source_cry_025_harvest_now_decrypt_later_mitigated target_cry_025_harvest_now_decrypt_later_mitigated))

; cry_026_key_extraction_mitigated: translation preserves property (matches Coq: Theorem)
(declare-fun source_cry_026_key_extraction_mitigated () Bool)
(declare-fun target_cry_026_key_extraction_mitigated () Bool)
(assert (= source_cry_026_key_extraction_mitigated target_cry_026_key_extraction_mitigated))

; cry_027_nonce_misuse_mitigated: translation preserves property (matches Coq: Theorem)
(declare-fun source_cry_027_nonce_misuse_mitigated () Bool)
(declare-fun target_cry_027_nonce_misuse_mitigated () Bool)
(assert (= source_cry_027_nonce_misuse_mitigated target_cry_027_nonce_misuse_mitigated))

; cry_027a_riina_mraead_secure: translation preserves property (matches Coq: Theorem)
(declare-fun source_cry_027a_riina_mraead_secure () Bool)
(declare-fun target_cry_027a_riina_mraead_secure () Bool)
(assert (= source_cry_027a_riina_mraead_secure target_cry_027a_riina_mraead_secure))

; cry_028_certificate_attack_mitigated: translation preserves property (matches Coq: Theorem)
(declare-fun source_cry_028_certificate_attack_mitigated () Bool)
(declare-fun target_cry_028_certificate_attack_mitigated () Bool)
(assert (= source_cry_028_certificate_attack_mitigated target_cry_028_certificate_attack_mitigated))

; cry_028a_riina_cert_secure: translation preserves property (matches Coq: Theorem)
(declare-fun source_cry_028a_riina_cert_secure () Bool)
(declare-fun target_cry_028a_riina_cert_secure () Bool)
(assert (= source_cry_028a_riina_cert_secure target_cry_028a_riina_cert_secure))

; cry_029_random_fault_mitigated: translation preserves property (matches Coq: Theorem)
(declare-fun source_cry_029_random_fault_mitigated () Bool)
(declare-fun target_cry_029_random_fault_mitigated () Bool)
(assert (= source_cry_029_random_fault_mitigated target_cry_029_random_fault_mitigated))

; cry_030_bleichenbacher_mitigated: translation preserves property (matches Coq: Theorem)
(declare-fun source_cry_030_bleichenbacher_mitigated () Bool)
(declare-fun target_cry_030_bleichenbacher_mitigated () Bool)
(assert (= source_cry_030_bleichenbacher_mitigated target_cry_030_bleichenbacher_mitigated))

; cry_031_whisper_leak_mitigated: translation preserves property (matches Coq: Theorem)
(declare-fun source_cry_031_whisper_leak_mitigated () Bool)
(declare-fun target_cry_031_whisper_leak_mitigated () Bool)
(assert (= source_cry_031_whisper_leak_mitigated target_cry_031_whisper_leak_mitigated))

; complete_ct_security: translation preserves property (matches Coq: Theorem)
(declare-fun source_complete_ct_security () Bool)
(declare-fun target_complete_ct_security () Bool)
(assert (= source_complete_ct_security target_complete_ct_security))

; complete_aead_security: translation preserves property (matches Coq: Theorem)
(declare-fun source_complete_aead_security () Bool)
(declare-fun target_complete_aead_security () Bool)
(assert (= source_complete_aead_security target_complete_aead_security))

; riina_complete_crypto_security: translation preserves property (matches Coq: Theorem)
(declare-fun source_riina_complete_crypto_security () Bool)
(declare-fun target_riina_complete_crypto_security () Bool)
(assert (= source_riina_complete_crypto_security target_riina_complete_crypto_security))

; enc_001_length_preservation: translation preserves property (matches Coq: Theorem)
(declare-fun source_enc_001_length_preservation () Bool)
(declare-fun target_enc_001_length_preservation () Bool)
(assert (= source_enc_001_length_preservation target_enc_001_length_preservation))

; enc_002_key_size_requirement: translation preserves property (matches Coq: Theorem)
(declare-fun source_enc_002_key_size_requirement () Bool)
(declare-fun target_enc_002_key_size_requirement () Bool)
(assert (= source_enc_002_key_size_requirement target_enc_002_key_size_requirement))

; enc_003_riina_key_size_valid: translation preserves property (matches Coq: Theorem)
(declare-fun source_enc_003_riina_key_size_valid () Bool)
(declare-fun target_enc_003_riina_key_size_valid () Bool)
(assert (= source_enc_003_riina_key_size_valid target_enc_003_riina_key_size_valid))

; enc_004_riina_nonce_size_valid: translation preserves property (matches Coq: Theorem)
(declare-fun source_enc_004_riina_nonce_size_valid () Bool)
(declare-fun target_enc_004_riina_nonce_size_valid () Bool)
(assert (= source_enc_004_riina_nonce_size_valid target_enc_004_riina_nonce_size_valid))

; enc_005_riina_tag_size_valid: translation preserves property (matches Coq: Theorem)
(declare-fun source_enc_005_riina_tag_size_valid () Bool)
(declare-fun target_enc_005_riina_tag_size_valid () Bool)
(assert (= source_enc_005_riina_tag_size_valid target_enc_005_riina_tag_size_valid))

; enc_006_riina_is_authenticated: translation preserves property (matches Coq: Theorem)
(declare-fun source_enc_006_riina_is_authenticated () Bool)
(declare-fun target_enc_006_riina_is_authenticated () Bool)
(assert (= source_enc_006_riina_is_authenticated target_enc_006_riina_is_authenticated))

; kdf_001_riina_kdf_secure: translation preserves property (matches Coq: Theorem)
(declare-fun source_kdf_001_riina_kdf_secure () Bool)
(declare-fun target_kdf_001_riina_kdf_secure () Bool)
(assert (= source_kdf_001_riina_kdf_secure target_kdf_001_riina_kdf_secure))

; kdf_002_kdf_output_sufficient: translation preserves property (matches Coq: Theorem)
(declare-fun source_kdf_002_kdf_output_sufficient () Bool)
(declare-fun target_kdf_002_kdf_output_sufficient () Bool)
(assert (= source_kdf_002_kdf_output_sufficient target_kdf_002_kdf_output_sufficient))

; kdf_003_kdf_salt_sufficient: translation preserves property (matches Coq: Theorem)
(declare-fun source_kdf_003_kdf_salt_sufficient () Bool)
(declare-fun target_kdf_003_kdf_salt_sufficient () Bool)
(assert (= source_kdf_003_kdf_salt_sufficient target_kdf_003_kdf_salt_sufficient))

; kdf_004_kdf_approved_algorithm: translation preserves property (matches Coq: Theorem)
(declare-fun source_kdf_004_kdf_approved_algorithm () Bool)
(declare-fun target_kdf_004_kdf_approved_algorithm () Bool)
(assert (= source_kdf_004_kdf_approved_algorithm target_kdf_004_kdf_approved_algorithm))

; dk_001_valid_implies_secure_kdf: translation preserves property (matches Coq: Theorem)
(declare-fun source_dk_001_valid_implies_secure_kdf () Bool)
(declare-fun target_dk_001_valid_implies_secure_kdf () Bool)
(assert (= source_dk_001_valid_implies_secure_kdf target_dk_001_valid_implies_secure_kdf))

; mac_001_riina_mac_secure: translation preserves property (matches Coq: Theorem)
(declare-fun source_mac_001_riina_mac_secure () Bool)
(declare-fun target_mac_001_riina_mac_secure () Bool)
(assert (= source_mac_001_riina_mac_secure target_mac_001_riina_mac_secure))

; mac_002_mac_key_sufficient: translation preserves property (matches Coq: Theorem)
(declare-fun source_mac_002_mac_key_sufficient () Bool)
(declare-fun target_mac_002_mac_key_sufficient () Bool)
(assert (= source_mac_002_mac_key_sufficient target_mac_002_mac_key_sufficient))

; mac_003_mac_tag_sufficient: translation preserves property (matches Coq: Theorem)
(declare-fun source_mac_003_mac_tag_sufficient () Bool)
(declare-fun target_mac_003_mac_tag_sufficient () Bool)
(assert (= source_mac_003_mac_tag_sufficient target_mac_003_mac_tag_sufficient))

; mac_004_mac_constant_time: translation preserves property (matches Coq: Theorem)
(declare-fun source_mac_004_mac_constant_time () Bool)
(declare-fun target_mac_004_mac_constant_time () Bool)
(assert (= source_mac_004_mac_constant_time target_mac_004_mac_constant_time))

; tag_001_equal_tags_valid: translation preserves property (matches Coq: Theorem)
(declare-fun source_tag_001_equal_tags_valid () Bool)
(declare-fun target_tag_001_equal_tags_valid () Bool)
(assert (= source_tag_001_equal_tags_valid target_tag_001_equal_tags_valid))

; tag_002_tag_compare_reflexive: translation preserves property (matches Coq: Theorem)
(declare-fun source_tag_002_tag_compare_reflexive () Bool)
(declare-fun target_tag_002_tag_compare_reflexive () Bool)
(assert (= source_tag_002_tag_compare_reflexive target_tag_002_tag_compare_reflexive))

; nonce_001_counter_incrementable: translation preserves property (matches Coq: Theorem)
(declare-fun source_nonce_001_counter_incrementable () Bool)
(declare-fun target_nonce_001_counter_incrementable () Bool)
(assert (= source_nonce_001_counter_incrementable target_nonce_001_counter_incrementable))

; nonce_002_increment_changes_nonce: translation preserves property (matches Coq: Theorem)
(declare-fun source_nonce_002_increment_changes_nonce () Bool)
(declare-fun target_nonce_002_increment_changes_nonce () Bool)
(assert (= source_nonce_002_increment_changes_nonce target_nonce_002_increment_changes_nonce))

; nonce_003_different_counters_different_nonces: translation preserves property (matches Coq: Theorem)
(declare-fun source_nonce_003_different_counters_different_nonces () Bool)
(declare-fun target_nonce_003_different_counters_different_nonces () Bool)
(assert (= source_nonce_003_different_counters_different_nonces target_nonce_003_different_counters_different_nonces))

; nonce_004_empty_set_no_collision: translation preserves property (matches Coq: Theorem)
(declare-fun source_nonce_004_empty_set_no_collision () Bool)
(declare-fun target_nonce_004_empty_set_no_collision () Bool)
(assert (= source_nonce_004_empty_set_no_collision target_nonce_004_empty_set_no_collision))

; nonce_005_add_increases_size: translation preserves property (matches Coq: Theorem)
(declare-fun source_nonce_005_add_increases_size () Bool)
(declare-fun target_nonce_005_add_increases_size () Bool)
(assert (= source_nonce_005_add_increases_size target_nonce_005_add_increases_size))

; full_001_riina_full_crypto_secure: translation preserves property (matches Coq: Theorem)
(declare-fun source_full_001_riina_full_crypto_secure () Bool)
(declare-fun target_full_001_riina_full_crypto_secure () Bool)
(assert (= source_full_001_riina_full_crypto_secure target_full_001_riina_full_crypto_secure))

; full_002_full_implies_ct: translation preserves property (matches Coq: Theorem)
(declare-fun source_full_002_full_implies_ct () Bool)
(declare-fun target_full_002_full_implies_ct () Bool)
(assert (= source_full_002_full_implies_ct target_full_002_full_implies_ct))

; full_003_full_implies_authenticated: translation preserves property (matches Coq: Theorem)
(declare-fun source_full_003_full_implies_authenticated () Bool)
(declare-fun target_full_003_full_implies_authenticated () Bool)
(assert (= source_full_003_full_implies_authenticated target_full_003_full_implies_authenticated))

; full_004_full_implies_pq_ready: translation preserves property (matches Coq: Theorem)
(declare-fun source_full_004_full_implies_pq_ready () Bool)
(declare-fun target_full_004_full_implies_pq_ready () Bool)
(assert (= source_full_004_full_implies_pq_ready target_full_004_full_implies_pq_ready))

; full_005_full_implies_kdf_secure: translation preserves property (matches Coq: Theorem)
(declare-fun source_full_005_full_implies_kdf_secure () Bool)
(declare-fun target_full_005_full_implies_kdf_secure () Bool)
(assert (= source_full_005_full_implies_kdf_secure target_full_005_full_implies_kdf_secure))

; full_006_full_implies_mac_secure: translation preserves property (matches Coq: Theorem)
(declare-fun source_full_006_full_implies_mac_secure () Bool)
(declare-fun target_full_006_full_implies_mac_secure () Bool)
(assert (= source_full_006_full_implies_mac_secure target_full_006_full_implies_mac_secure))

; Verify all translation validations are satisfiable
(check-sat)
(exit)
